Version identifier: 22.1.0.0 | 2022-03-09 | 1a383f8ce
CPXPARAM_Read_DataCheck                          1
CPXPARAM_TimeLimit                               600
1 of 1 MIP starts provided solutions.
MIP start 'm1' defined initial solution with objective 84.0000.
Tried aggregator 4 times.
MIP Presolve eliminated 240656 rows and 16875 columns.
MIP Presolve modified 2106 coefficients.
Aggregator did 228139 substitutions.
Reduced MIP has 17691 rows, 231098 columns, and 480356 nonzeros.
Reduced MIP has 231046 binaries, 52 generals, 0 SOSs, and 0 indicators.
Presolve time = 3.90 sec. (3959.74 ticks)
Tried aggregator 1 time.
Detecting symmetries...
Reduced MIP has 17691 rows, 231098 columns, and 480356 nonzeros.
Reduced MIP has 231046 binaries, 52 generals, 0 SOSs, and 0 indicators.
Presolve time = 0.84 sec. (414.65 ticks)
Probing fixed 80 vars, tightened 0 bounds.
Probing time = 1.12 sec. (115.33 ticks)
Clique table members: 466143.
MIP emphasis: balance optimality and feasibility.
MIP search method: dynamic search.
Parallel mode: deterministic, using up to 8 threads.
Root relaxation solution time = 2.41 sec. (1528.42 ticks)

        Nodes                                         Cuts/
   Node  Left     Objective  IInf  Best Integer    Best Bound    ItCnt     Gap

*     0+    0                           84.0000        0.0000           100.00%
      0     0       52.3808 13026       84.0000       52.3808       29   37.64%
      0     0       83.0000  1369       84.0000     Fract: 31    27299    1.19%
      0     0       83.0000  1314       84.0000     Cuts: 104    56237    1.19%

Repeating presolve.
Tried aggregator 3 times.
MIP Presolve eliminated 3854 rows and 140974 columns.
MIP Presolve modified 11 coefficients.
Aggregator did 2814 substitutions.
Reduced MIP has 11023 rows, 87310 columns, and 185117 nonzeros.
Reduced MIP has 87310 binaries, 0 generals, 0 SOSs, and 0 indicators.
Presolve time = 0.47 sec. (412.90 ticks)
Tried aggregator 2 times.
Detecting symmetries...
MIP Presolve modified 1 coefficients.
Aggregator did 11 substitutions.
Reduced MIP has 11012 rows, 87299 columns, and 185108 nonzeros.
Reduced MIP has 87299 binaries, 0 generals, 0 SOSs, and 0 indicators.
Presolve time = 0.19 sec. (159.13 ticks)
Represolve time = 0.91 sec. (807.47 ticks)

        Nodes                                         Cuts/
   Node  Left     Objective  IInf  Best Integer    Best Bound    ItCnt     Gap

      0     1  -1.00000e+37     0       84.0000       83.0000    56237    1.19%

Root node processing (before b&c):
  Real time             =  239.70 sec. (116579.33 ticks)
Parallel b&c, 8 threads:
  Real time             =    0.00 sec. (0.00 ticks)
  Sync time (average)   =    0.00 sec.
  Wait time (average)   =    0.00 sec.
                          ------------
Total (root+branch&cut) =  239.70 sec. (116579.33 ticks)
